0000000000000000
0000000000000000
0111111111100000
0111111111110000
0000000001111100
0000000001111100
0000000000111100
0000000000111100
0111100000111100
0111100000111100
0111100000111100
0111100000111100
0111100000111100
0111100000111100
0000000000000000
0000000000000000
